n = 28;
k = 3;
roles = [
{d, f},
{g, f},
{d, g},
{d, m},
{f, g},
{d, g},
{f, m},
{d, f},
{d, m},
{m, g},
{m, g},
{g, f},
{g, m},
{d, f},
{d, m},
{m, g},
{f, m},
{f, m},
{g, d},
{m, d},
{g, m},
{m, f},
{g, f},
{d, f},
{f, m},
{d, f},
{g, d},
{m, d}
];
num_pairs = 3;
player1 = [21, 27, 1];
player2 = [11, 26, 7];
